outputs/case_275.model.txt
renewal_commission_payment_exempted = False
commission_paid_to_non_actual_broker = False
exempted_by_product_characteristics = False
incomplete_suitability_report_filled = False
improper_document_transferred = False
prior_written_consent_obtained = False
unauthorized_business_suspension_or_termination = False
conflict_of_interest_employment_or_registration = False
coerce_contract = False
intentional_concealment_of_contract_info = False
convicted_of_fraud_or_related_crimes = False
spread_false_information = False
business_outside_license_scope = False
misappropriation_of_insurance_funds = False
failure_to_report_to_broker_association = False
induce_contract = False
employ_unqualified_personnel = False
exaggerated_or_false_promotion = False
improper_fee_or_commission_collection = False
unauthorized_use_of_insurance_advertisement = False
failure_to_reappoint_broker_after_resignation = False
delay_in_license_cancellation = False
improper_inducement_of_policy_surrender = False
false_or_incomplete_business_or_financial_report = False
induce_contract_termination_or_payment_by_loan = False
failure_to_confirm_product_suitability = False
demand_extra_benefits = False
unauthorized_delegation_or_proxy = False
false_report_on_license_application = False
restrict_contract_freedom = False
other_violations_of_rules_or_laws = False
sale_of_unapproved_foreign_discounted_policies = False
license_used_by_others = False
contract_with_unapproved_insurer = False
illegal_insurance_payment_made = False
other_behaviors_damaging_insurance_image = False
failure_to_confirm_suitability = False
induce_contract_termination = False
unauthorized_business_suspension = False
violation_any = False
unauthorized_delegation = False
contract_without_approval = False
improper_commission_payment = False
unauthorized_use_of_license = False
other_violations = False
conceal_important_info = False
license_cancellation_delay = False
unqualified_employment = False
misleading_promotion = False
damage_insurance_image = False
illegal_insurance_payment = False
failure_to_reappoint = False
criminal_conviction = False
induce_policy_surrender = False
unauthorized_advertisement = False
coerce_or_induce = False
improper_fee_collection = False
unauthorized_business_scope = False
disrupt_financial_order = False
false_or_incomplete_report = False
misappropriate_funds = False
sale_of_unapproved_foreign_products = False
incomplete_suitability_report = False
penalty = False
conflict_of_interest = False
misconduct_reported = False
failure_to_report = False
improper_document_handling = False